50
11197

483 137
559 492
556 903
656 994
583 719
294 692
835 191
899 294
784 440
628 336
525 288
280 95
883 57
248 267
35 244
37 472
946 180
410 384
737 463
797 788
600 143
951 407
704 692
483 270
570 664
685 660
156 72
336 264
941 35
770 201
193 604
352 938
491 595
205 523
151 78
110 187
299 984
165 633
71 21
669 628
727 995
272 338
681 677
912 62
486 643
126 146
39 977
452 956
398 904
465 59
